(set-logic QF_BV)
(declare-fun _substvar_98_ () (_ BitVec 127))
(declare-fun _substvar_93_ () (_ BitVec 127))
(declare-fun _substvar_86_ () (_ BitVec 127))
(declare-fun _substvar_61_ () (_ BitVec 127))
(declare-fun _substvar_148_ () Bool)
(assert (and true true true true true true true true true true true true true true true true true true true true true true true true true true true true true true true true true true true true true true true true true true true true true true true true true true true true true true true true true true true true true true true true true true true true true true true true true true true true true true true true true true true true true true true true true true true true (= _substvar_86_ (_ bv0 127)) (ite _substvar_148_ (= _substvar_93_ (_ bv0 127)) (= _substvar_93_ (concat (_ bv0 126) (bvxor (_ bv0 1) ((_ extract 125 125) _substvar_86_))))) (= _substvar_98_ (concat ((_ extract 125 0) _substvar_93_) (bvxor ((_ extract 126 126) _substvar_93_) ((_ extract 125 125) _substvar_93_)))) (= _substvar_61_ (concat ((_ extract 125 0) _substvar_98_) (_ bv0 1))) true true true true true true true true true true true true true true true true true true true true true true true true true true true true true true true true true true true true true true true true true true true true true true true true true true true true true true true true true true true true true true true true true true true true true true true true true true true true true true true true true true true true true true true true true true true true true true true true true true true (= (= _substvar_61_ (_ bv0 127)) false)))
(check-sat)
(exit)
